LengthSchedulingHorizon=2171;
nAttributes=5;
SetupCosts=[[0, 0, 0, 0, 0], [21, 21, 21, 21, 21], [21, 21, 21, 21, 21], [21, 21, 21, 21, 21], [21, 21, 21, 21, 21], [21, 21, 21, 21, 21]];
SetupTimes=[[0, 0, 0, 0, 0], [12, 12, 12, 12, 12], [12, 12, 12, 12, 12], [12, 12, 12, 12, 12], [12, 12, 12, 12, 12], [12, 12, 12, 12, 12]];
nMachines=5;
MinCap=[0, 0, 0, 0, 0];
MaxCap=[50, 15, 57, 42, 28];

initState=[3, 1, 3, 5, 3];
nShifts=5;
ShiftStartTimes = [[501, 726, 1581, 1732, 2022], [0, 0, 0, 0, 528], [400, 740, 903, 1860, 2117], [0, 0, 0, 406, 1616], [0, 0, 0, 542, 820]];
ShiftEndTimes = [[694, 1383, 1698, 2000, 2155], [0, 0, 0, 0, 1763], [662, 894, 1845, 2083, 2159], [0, 0, 0, 1487, 2114], [0, 0, 0, 796, 2160]];
nJobs=25;
EligibleMachines = [{1, 2}, {3, 4, 5}, {1}, {1, 2, 3, 5}, {4, 5}, {2, 3}, {4}, {5}, {1}, {4}, {3, 5}, {1, 3, 4}, {2, 3}, {1}, {4}, {1, 5}, {5}, {2, 4}, {3}, {1, 3}, {5}, {2, 5}, {2, 3, 4}, {5}, {2}];
EarliestStart=[94, 28, 92, 118, 79, 121, 66, 115, 70, 65, 91, 77, 44, 70, 115, 20, 72, 61, 85, 38, 100, 116, 49, 84, 124];
LatestEnd=[178, 61, 348, 160, 219, 378, 365, 147, 219, 116, 121, 164, 143, 315, 321, 88, 164, 137, 309, 107, 370, 344, 234, 221, 504];
MinTime=[20, 7, 73, 18, 33, 59, 66, 12, 43, 33, 22, 51, 40, 78, 52, 18, 50, 62, 85, 16, 58, 74, 95, 83, 87];
MaxTime=[22, 97, 87, 89, 39, 62, 76, 69, 74, 72, 39, 58, 52, 90, 89, 52, 58, 93, 92, 71, 75, 92, 96, 97, 100];
JobSize=[2, 4, 5, 1, 3, 3, 1, 3, 4, 1, 3, 4, 5, 2, 4, 4, 4, 4, 1, 3, 3, 3, 3, 2, 1];
Attribute=[1, 3, 5, 3, 4, 5, 4, 1, 4, 2, 2, 2, 5, 4, 4, 5, 2, 2, 2, 4, 5, 3, 3, 1, 5];

upper_bound_integer_objective=5512500;
mult_factor_total_runtime=168;
mult_factor_finished_toolate=210000;
mult_factor_total_setuptimes=0;
mult_factor_total_setupcosts=100;
running_time_bound=1235;
min_duration=7;
max_duration=95;
max_setup_time=12;
max_setup_cost=21;
